KPOINTS File, automatically generated by KPPRA - aflow with Kpoints=8670  [KPPRA=8000]
0
Gamma
18 18 14
0 0 0

