Te1   [HEX,HEX,hP3] (STD_PRIM doi:10.101
 1.00000000000000000
     2.2517527442466188   -3.9001501591177914    0.0000000000000000
     2.2517527442466188    3.9001501591177914    0.0000000000000000
     0.0000000000000000    0.0000000000000000    6.0042397198523947
   Te
     3
Direct
  0.7310000000000016  0.0000000000000000  0.3333333333333357
  0.0000000000000000  0.7310000000000016  0.6666666666666643
  0.2689999999999984  0.2689999999999984  0.0000000000000000
 
  0.00000000E+00  0.00000000E+00  0.00000000E+00
  0.00000000E+00  0.00000000E+00  0.00000000E+00
  0.00000000E+00  0.00000000E+00  0.00000000E+00
